<instance format="XCSP3" type="COP">
  <variables>
    <var id="x" note="x is the number of unused bins"> 0..24 </var>
    <array id="b" note="b[i][j] indicates the weight of the jth object put in the ith bin. It is 0 if there is no object at this place." size="[24][3]"> 0 250 252 254..258 261..263 265 268 270 273 275 277 278 281 293 297 298 316 332 345 347 354 357 361 367..369 371 375 378 391 405 414 426 429 451 456 459 461 462 477 478 485 493 495 </array>
  </variables>
  <constraints>
    <group>
      <mdd>
        <list> %... </list>
        <transitions> (root,0,n3)(root,250,n5)(root,252,n6)(root,254,n8)(root,255,n10)(root,256,n12)(root,257,n14)(root,258,n15)(root,261,n18)(root,262,n20)(root,263,n22)(root,265,n24)(root,268,n26)(root,270,n28)(root,273,n29)(root,275,n31)(root,277,n33)(root,278,n36)(root,281,n38)(root,293,n40)(root,297,n42)(root,298,n44)(root,316,n45)(root,332,n47)(root,345,n49)(root,347,n51)(root,354,n52)(root,357,n53)(root,361,n54)(root,367,n55)(root,368,n56)(root,369,n57)(root,371,n58)(root,375,n59)(root,378,n60)(root,391,n61)(root,405,n62)(root,414,n63)(root,426,n64)(root,429,n65)(root,451,n66)(root,456,n67)(root,459,n68)(root,461,n69)(root,462,n70)(root,477,n71)(root,478,n72)(root,485,n73)(root,493,n74)(root,495,n75)(n3,0,n4)(n4,0,nodeT)(n5,0,n4)(n5,250,n4)(n6,0,n4)(n6,250,n7)(n7,0,nodeT)(n7,250,nodeT)(n8,0,n4)(n8,250,n7)(n8,252,n7)(n8,254,n9)(n9,0,nodeT)(n9,250,nodeT)(n9,252,nodeT)(n10,0,n4)(n10,250,n7)(n10,252,n7)(n10,254,n11)(n10,255,n11)(n11,0,nodeT)(n11,250,nodeT)(n11,252,nodeT)(n11,254,nodeT)(n12,0,n4)(n12,250,n7)(n12,252,n7)(n12,254,n11)(n12,255,n13)(n13,0,nodeT)(n13,250,nodeT)(n13,252,nodeT)(n13,254,nodeT)(n13,255,nodeT)(n14,0,n4)(n14,250,n7)(n14,252,n7)(n14,254,n11)(n14,255,n13)(n14,256,n13)(n15,0,n4)(n15,250,n7)(n15,252,n7)(n15,254,n11)(n15,255,n13)(n15,256,n13)(n15,257,n16)(n15,258,n17)(n16,0,nodeT)(n16,250,nodeT)(n16,252,nodeT)(n16,254,nodeT)(n16,255,nodeT)(n16,256,nodeT)(n17,0,nodeT)(n17,250,nodeT)(n17,252,nodeT)(n17,254,nodeT)(n17,255,nodeT)(n17,256,nodeT)(n17,257,nodeT)(n18,0,n4)(n18,250,n7)(n18,252,n7)(n18,254,n11)(n18,255,n13)(n18,256,n13)(n18,257,n16)(n18,258,n19)(n18,261,n19)(n19,0,nodeT)(n19,250,nodeT)(n19,252,nodeT)(n19,254,nodeT)(n19,255,nodeT)(n19,256,nodeT)(n19,257,nodeT)(n19,258,nodeT)(n20,0,n4)(n20,250,n7)(n20,252,n7)(n20,254,n11)(n20,255,n13)(n20,256,n13)(n20,257,n16)(n20,258,n19)(n20,261,n21)(n21,0,nodeT)(n21,250,nodeT)(n21,252,nodeT)(n21,254,nodeT)(n21,255,nodeT)(n21,256,nodeT)(n21,257,nodeT)(n21,258,nodeT)(n21,261,nodeT)(n22,0,n4)(n22,250,n7)(n22,252,n7)(n22,254,n11)(n22,255,n13)(n22,256,n13)(n22,257,n16)(n22,258,n19)(n22,261,n21)(n22,262,n21)(n22,263,n23)(n23,0,nodeT)(n23,250,nodeT)(n23,252,nodeT)(n23,254,nodeT)(n23,255,nodeT)(n23,256,nodeT)(n23,257,nodeT)(n23,258,nodeT)(n23,261,nodeT)(n23,262,nodeT)(n24,0,n4)(n24,250,n7)(n24,252,n7)(n24,254,n11)(n24,255,n13)(n24,256,n13)(n24,257,n16)(n24,258,n19)(n24,261,n21)(n24,262,n21)(n24,263,n25)(n24,265,n25)(n25,0,nodeT)(n25,250,nodeT)(n25,252,nodeT)(n25,254,nodeT)(n25,255,nodeT)(n25,256,nodeT)(n25,257,nodeT)(n25,258,nodeT)(n25,261,nodeT)(n25,262,nodeT)(n25,263,nodeT)(n26,0,n4)(n26,250,n7)(n26,252,n7)(n26,254,n11)(n26,255,n13)(n26,256,n13)(n26,257,n16)(n26,258,n19)(n26,261,n21)(n26,262,n21)(n26,263,n25)(n26,265,n27)(n27,0,nodeT)(n27,250,nodeT)(n27,252,nodeT)(n27,254,nodeT)(n27,255,nodeT)(n27,256,nodeT)(n27,257,nodeT)(n27,258,nodeT)(n27,261,nodeT)(n27,262,nodeT)(n27,263,nodeT)(n27,265,nodeT)(n28,0,n4)(n28,250,n7)(n28,252,n7)(n28,254,n11)(n28,255,n13)(n28,256,n13)(n28,257,n16)(n28,258,n19)(n28,261,n21)(n28,262,n21)(n28,263,n25)(n28,265,n27)(n28,268,n27)(n29,0,n4)(n29,250,n7)(n29,252,n7)(n29,254,n11)(n29,255,n13)(n29,256,n13)(n29,257,n16)(n29,258,n19)(n29,261,n21)(n29,262,n21)(n29,263,n25)(n29,265,n27)(n29,268,n27)(n29,270,n30)(n30,0,nodeT)(n30,250,nodeT)(n30,252,nodeT)(n30,254,nodeT)(n30,255,nodeT)(n30,256,nodeT)(n30,257,nodeT)(n30,258,nodeT)(n30,261,nodeT)(n30,262,nodeT)(n30,263,nodeT)(n30,265,nodeT)(n30,268,nodeT)(n31,0,n4)(n31,250,n7)(n31,252,n7)(n31,254,n11)(n31,255,n13)(n31,256,n13)(n31,257,n16)(n31,258,n19)(n31,261,n21)(n31,262,n21)(n31,263,n25)(n31,265,n27)(n31,268,n27)(n31,270,n30)(n31,273,n32)(n32,0,nodeT)(n32,250,nodeT)(n32,252,nodeT)(n32,254,nodeT)(n32,255,nodeT)(n32,256,nodeT)(n32,257,nodeT)(n32,258,nodeT)(n32,261,nodeT)(n32,262,nodeT)(n32,263,nodeT)(n32,265,nodeT)(n32,268,nodeT)(n32,270,nodeT)(n33,0,n4)(n33,250,n7)(n33,252,n7)(n33,254,n11)(n33,255,n13)(n33,256,n13)(n33,257,n16)(n33,258,n19)(n33,261,n21)(n33,262,n21)(n33,263,n25)(n33,265,n27)(n33,268,n27)(n33,270,n30)(n33,273,n32)(n33,275,n34)(n33,277,n35)(n34,0,nodeT)(n34,250,nodeT)(n34,252,nodeT)(n34,254,nodeT)(n34,255,nodeT)(n34,256,nodeT)(n34,257,nodeT)(n34,258,nodeT)(n34,261,nodeT)(n34,262,nodeT)(n34,263,nodeT)(n34,265,nodeT)(n34,268,nodeT)(n34,270,nodeT)(n34,273,nodeT)(n35,0,nodeT)(n35,250,nodeT)(n35,252,nodeT)(n35,254,nodeT)(n35,255,nodeT)(n35,256,nodeT)(n35,257,nodeT)(n35,258,nodeT)(n35,261,nodeT)(n35,262,nodeT)(n35,263,nodeT)(n35,265,nodeT)(n35,268,nodeT)(n35,270,nodeT)(n35,273,nodeT)(n35,275,nodeT)(n36,0,n4)(n36,250,n7)(n36,252,n7)(n36,254,n11)(n36,255,n13)(n36,256,n13)(n36,257,n16)(n36,258,n19)(n36,261,n21)(n36,262,n21)(n36,263,n25)(n36,265,n27)(n36,268,n27)(n36,270,n30)(n36,273,n32)(n36,275,n34)(n36,277,n37)(n36,278,n37)(n37,0,nodeT)(n37,250,nodeT)(n37,252,nodeT)(n37,254,nodeT)(n37,255,nodeT)(n37,256,nodeT)(n37,257,nodeT)(n37,258,nodeT)(n37,261,nodeT)(n37,262,nodeT)(n37,263,nodeT)(n37,265,nodeT)(n37,268,nodeT)(n37,270,nodeT)(n37,273,nodeT)(n37,275,nodeT)(n37,277,nodeT)(n38,0,n4)(n38,250,n7)(n38,252,n7)(n38,254,n11)(n38,255,n13)(n38,256,n13)(n38,257,n16)(n38,258,n19)(n38,261,n21)(n38,262,n21)(n38,263,n25)(n38,265,n27)(n38,268,n27)(n38,270,n30)(n38,273,n32)(n38,275,n34)(n38,277,n37)(n38,278,n39)(n38,281,n39)(n39,0,nodeT)(n39,250,nodeT)(n39,252,nodeT)(n39,254,nodeT)(n39,255,nodeT)(n39,256,nodeT)(n39,257,nodeT)(n39,258,nodeT)(n39,261,nodeT)(n39,262,nodeT)(n39,263,nodeT)(n39,265,nodeT)(n39,268,nodeT)(n39,270,nodeT)(n39,273,nodeT)(n39,275,nodeT)(n39,277,nodeT)(n39,278,nodeT)(n40,0,n4)(n40,250,n7)(n40,252,n7)(n40,254,n11)(n40,255,n13)(n40,256,n13)(n40,257,n16)(n40,258,n19)(n40,261,n21)(n40,262,n21)(n40,263,n25)(n40,265,n27)(n40,268,n27)(n40,270,n30)(n40,273,n32)(n40,275,n34)(n40,277,n37)(n40,278,n39)(n40,281,n41)(n40,293,n41)(n41,0,nodeT)(n41,250,nodeT)(n41,252,nodeT)(n41,254,nodeT)(n41,255,nodeT)(n41,256,nodeT)(n41,257,nodeT)(n41,258,nodeT)(n41,261,nodeT)(n41,262,nodeT)(n41,263,nodeT)(n41,265,nodeT)(n41,268,nodeT)(n41,270,nodeT)(n41,273,nodeT)(n41,275,nodeT)(n41,277,nodeT)(n41,278,nodeT)(n41,281,nodeT)(n42,0,n4)(n42,250,n7)(n42,252,n7)(n42,254,n11)(n42,255,n13)(n42,256,n13)(n42,257,n16)(n42,258,n19)(n42,261,n21)(n42,262,n21)(n42,263,n25)(n42,265,n27)(n42,268,n27)(n42,270,n30)(n42,273,n32)(n42,275,n34)(n42,277,n37)(n42,278,n39)(n42,281,n41)(n42,293,n43)(n43,0,nodeT)(n43,250,nodeT)(n43,252,nodeT)(n43,254,nodeT)(n43,255,nodeT)(n43,256,nodeT)(n43,257,nodeT)(n43,258,nodeT)(n43,261,nodeT)(n43,262,nodeT)(n43,263,nodeT)(n43,265,nodeT)(n43,268,nodeT)(n43,270,nodeT)(n43,273,nodeT)(n43,275,nodeT)(n43,277,nodeT)(n43,278,nodeT)(n43,281,nodeT)(n43,293,nodeT)(n44,0,n4)(n44,250,n7)(n44,252,n7)(n44,254,n11)(n44,255,n13)(n44,256,n13)(n44,257,n16)(n44,258,n19)(n44,261,n21)(n44,262,n21)(n44,263,n25)(n44,265,n27)(n44,268,n27)(n44,270,n30)(n44,273,n32)(n44,275,n34)(n44,277,n37)(n44,278,n39)(n44,281,n41)(n44,293,n43)(n44,297,n43)(n45,0,n4)(n45,250,n7)(n45,252,n7)(n45,254,n11)(n45,255,n13)(n45,256,n13)(n45,257,n16)(n45,258,n19)(n45,261,n21)(n45,262,n21)(n45,263,n25)(n45,265,n27)(n45,268,n27)(n45,270,n30)(n45,273,n32)(n45,275,n34)(n45,277,n37)(n45,278,n39)(n45,281,n41)(n45,293,n43)(n45,297,n43)(n45,298,n46)(n46,0,nodeT)(n46,250,nodeT)(n46,252,nodeT)(n46,254,nodeT)(n46,255,nodeT)(n46,256,nodeT)(n46,257,nodeT)(n46,258,nodeT)(n46,261,nodeT)(n46,262,nodeT)(n46,263,nodeT)(n46,265,nodeT)(n46,268,nodeT)(n46,270,nodeT)(n46,273,nodeT)(n46,275,nodeT)(n46,277,nodeT)(n46,278,nodeT)(n46,281,nodeT)(n46,293,nodeT)(n46,297,nodeT)(n47,0,n4)(n47,250,n7)(n47,252,n7)(n47,254,n11)(n47,255,n13)(n47,256,n13)(n47,257,n16)(n47,258,n19)(n47,261,n21)(n47,262,n21)(n47,263,n25)(n47,265,n27)(n47,268,n27)(n47,270,n30)(n47,273,n32)(n47,275,n34)(n47,277,n37)(n47,278,n39)(n47,281,n41)(n47,293,n43)(n47,297,n43)(n47,298,n46)(n47,316,n48)(n48,0,nodeT)(n48,250,nodeT)(n48,252,nodeT)(n48,254,nodeT)(n48,255,nodeT)(n48,256,nodeT)(n48,257,nodeT)(n48,258,nodeT)(n48,261,nodeT)(n48,262,nodeT)(n48,263,nodeT)(n48,265,nodeT)(n48,268,nodeT)(n48,270,nodeT)(n48,273,nodeT)(n48,275,nodeT)(n48,277,nodeT)(n48,278,nodeT)(n48,281,nodeT)(n48,293,nodeT)(n48,297,nodeT)(n48,298,nodeT)(n49,0,n4)(n49,250,n7)(n49,252,n7)(n49,254,n11)(n49,255,n13)(n49,256,n13)(n49,257,n16)(n49,258,n19)(n49,261,n21)(n49,262,n21)(n49,263,n25)(n49,265,n27)(n49,268,n27)(n49,270,n30)(n49,273,n32)(n49,275,n34)(n49,277,n37)(n49,278,n39)(n49,281,n41)(n49,293,n43)(n49,297,n43)(n49,298,n46)(n49,316,n48)(n49,332,n50)(n50,0,nodeT)(n50,250,nodeT)(n50,252,nodeT)(n50,254,nodeT)(n50,255,nodeT)(n50,256,nodeT)(n50,257,nodeT)(n50,258,nodeT)(n50,261,nodeT)(n50,262,nodeT)(n50,263,nodeT)(n50,265,nodeT)(n50,268,nodeT)(n50,270,nodeT)(n50,273,nodeT)(n50,275,nodeT)(n50,277,nodeT)(n50,278,nodeT)(n50,281,nodeT)(n50,293,nodeT)(n50,297,nodeT)(n50,298,nodeT)(n50,316,nodeT)(n51,0,n4)(n51,250,n7)(n51,252,n7)(n51,254,n11)(n51,255,n13)(n51,256,n13)(n51,257,n16)(n51,258,n19)(n51,261,n21)(n51,262,n21)(n51,263,n25)(n51,265,n27)(n51,268,n27)(n51,270,n30)(n51,273,n32)(n51,275,n34)(n51,277,n37)(n51,278,n39)(n51,281,n41)(n51,293,n43)(n51,297,n43)(n51,298,n46)(n51,316,n48)(n51,332,n50)(n51,345,n48)(n52,0,n4)(n52,250,n7)(n52,252,n7)(n52,254,n11)(n52,255,n13)(n52,256,n13)(n52,257,n16)(n52,258,n19)(n52,261,n21)(n52,262,n21)(n52,263,n25)(n52,265,n27)(n52,268,n27)(n52,270,n30)(n52,273,n32)(n52,275,n34)(n52,277,n37)(n52,278,n39)(n52,281,n41)(n52,293,n43)(n52,297,n43)(n52,298,n46)(n52,316,n48)(n52,332,n48)(n52,345,n48)(n52,347,n48)(n53,0,n4)(n53,250,n7)(n53,252,n7)(n53,254,n11)(n53,255,n13)(n53,256,n13)(n53,257,n16)(n53,258,n19)(n53,261,n21)(n53,262,n21)(n53,263,n25)(n53,265,n27)(n53,268,n27)(n53,270,n30)(n53,273,n32)(n53,275,n34)(n53,277,n37)(n53,278,n39)(n53,281,n41)(n53,293,n43)(n53,297,n43)(n53,298,n46)(n53,316,n48)(n53,332,n48)(n53,345,n48)(n53,347,n43)(n53,354,n41)(n54,0,n4)(n54,250,n7)(n54,252,n7)(n54,254,n11)(n54,255,n13)(n54,256,n13)(n54,257,n16)(n54,258,n19)(n54,261,n21)(n54,262,n21)(n54,263,n25)(n54,265,n27)(n54,268,n27)(n54,270,n30)(n54,273,n32)(n54,275,n34)(n54,277,n37)(n54,278,n39)(n54,281,n41)(n54,293,n43)(n54,297,n43)(n54,298,n46)(n54,316,n48)(n54,332,n48)(n54,345,n43)(n54,347,n41)(n54,354,n41)(n54,357,n41)(n55,0,n4)(n55,250,n7)(n55,252,n7)(n55,254,n11)(n55,255,n13)(n55,256,n13)(n55,257,n16)(n55,258,n19)(n55,261,n21)(n55,262,n21)(n55,263,n25)(n55,265,n27)(n55,268,n27)(n55,270,n30)(n55,273,n32)(n55,275,n34)(n55,277,n37)(n55,278,n39)(n55,281,n41)(n55,293,n43)(n55,297,n43)(n55,298,n46)(n55,316,n48)(n55,332,n48)(n55,345,n41)(n55,347,n41)(n55,354,n39)(n55,357,n35)(n55,361,n32)(n56,0,n4)(n56,250,n7)(n56,252,n7)(n56,254,n11)(n56,255,n13)(n56,256,n13)(n56,257,n16)(n56,258,n19)(n56,261,n21)(n56,262,n21)(n56,263,n25)(n56,265,n27)(n56,268,n27)(n56,270,n30)(n56,273,n32)(n56,275,n34)(n56,277,n37)(n56,278,n39)(n56,281,n41)(n56,293,n43)(n56,297,n43)(n56,298,n46)(n56,316,n48)(n56,332,n48)(n56,345,n41)(n56,347,n41)(n56,354,n39)(n56,357,n35)(n56,361,n32)(n56,367,n27)(n57,0,n4)(n57,250,n7)(n57,252,n7)(n57,254,n11)(n57,255,n13)(n57,256,n13)(n57,257,n16)(n57,258,n19)(n57,261,n21)(n57,262,n21)(n57,263,n25)(n57,265,n27)(n57,268,n27)(n57,270,n30)(n57,273,n32)(n57,275,n34)(n57,277,n37)(n57,278,n39)(n57,281,n41)(n57,293,n43)(n57,297,n43)(n57,298,n46)(n57,316,n48)(n57,332,n48)(n57,345,n41)(n57,347,n41)(n57,354,n37)(n57,357,n34)(n57,361,n32)(n57,367,n25)(n57,368,n25)(n58,0,n4)(n58,250,n7)(n58,252,n7)(n58,254,n11)(n58,255,n13)(n58,256,n13)(n58,257,n16)(n58,258,n19)(n58,261,n21)(n58,262,n21)(n58,263,n25)(n58,265,n27)(n58,268,n27)(n58,270,n30)(n58,273,n32)(n58,275,n34)(n58,277,n37)(n58,278,n39)(n58,281,n41)(n58,293,n43)(n58,297,n43)(n58,298,n46)(n58,316,n48)(n58,332,n46)(n58,345,n41)(n58,347,n41)(n58,354,n35)(n58,357,n32)(n58,361,n30)(n58,367,n23)(n58,368,n21)(n58,369,n19)(n59,0,n4)(n59,250,n7)(n59,252,n7)(n59,254,n11)(n59,255,n13)(n59,256,n13)(n59,257,n16)(n59,258,n19)(n59,261,n21)(n59,262,n21)(n59,263,n25)(n59,265,n27)(n59,268,n27)(n59,270,n30)(n59,273,n32)(n59,275,n34)(n59,277,n37)(n59,278,n39)(n59,281,n41)(n59,293,n43)(n59,297,n43)(n59,298,n46)(n59,316,n48)(n59,332,n43)(n59,345,n39)(n59,347,n39)(n59,354,n32)(n59,357,n30)(n59,361,n25)(n59,367,n19)(n59,368,n17)(n59,369,n16)(n59,371,n11)(n60,0,n4)(n60,250,n7)(n60,252,n7)(n60,254,n11)(n60,255,n13)(n60,256,n13)(n60,257,n16)(n60,258,n19)(n60,261,n21)(n60,262,n21)(n60,263,n25)(n60,265,n27)(n60,268,n27)(n60,270,n30)(n60,273,n32)(n60,275,n34)(n60,277,n37)(n60,278,n39)(n60,281,n41)(n60,293,n43)(n60,297,n43)(n60,298,n46)(n60,316,n48)(n60,332,n41)(n60,345,n37)(n60,347,n35)(n60,354,n30)(n60,357,n27)(n60,361,n21)(n60,367,n13)(n60,368,n11)(n60,369,n9)(n60,371,n7)(n60,375,n4)(n61,0,n4)(n61,250,n7)(n61,252,n7)(n61,254,n11)(n61,255,n13)(n61,256,n13)(n61,257,n16)(n61,258,n19)(n61,261,n21)(n61,262,n21)(n61,263,n25)(n61,265,n27)(n61,268,n27)(n61,270,n30)(n61,273,n32)(n61,275,n34)(n61,277,n37)(n61,278,n39)(n61,281,n41)(n61,293,n43)(n61,297,n43)(n61,298,n46)(n61,316,n43)(n61,332,n37)(n61,345,n25)(n61,347,n23)(n61,354,n13)(n61,357,n9)(n61,361,n4)(n61,367,n4)(n61,368,n4)(n61,369,n4)(n61,371,n4)(n61,375,n4)(n61,378,n4)(n62,0,n4)(n62,250,n7)(n62,252,n7)(n62,254,n11)(n62,255,n13)(n62,256,n13)(n62,257,n16)(n62,258,n19)(n62,261,n21)(n62,262,n21)(n62,263,n25)(n62,265,n27)(n62,268,n27)(n62,270,n30)(n62,273,n32)(n62,275,n34)(n62,277,n37)(n62,278,n39)(n62,281,n41)(n62,293,n43)(n62,297,n43)(n62,298,n46)(n62,316,n39)(n62,332,n25)(n62,345,n7)(n62,347,n4)(n62,354,n4)(n62,357,n4)(n62,361,n4)(n62,367,n4)(n62,368,n4)(n62,369,n4)(n62,371,n4)(n62,375,n4)(n62,378,n4)(n62,391,n4)(n63,0,n4)(n63,250,n7)(n63,252,n7)(n63,254,n11)(n63,255,n13)(n63,256,n13)(n63,257,n16)(n63,258,n19)(n63,261,n21)(n63,262,n21)(n63,263,n25)(n63,265,n27)(n63,268,n27)(n63,270,n30)(n63,273,n32)(n63,275,n34)(n63,277,n37)(n63,278,n39)(n63,281,n41)(n63,293,n43)(n63,297,n41)(n63,298,n41)(n63,316,n32)(n63,332,n11)(n63,345,n4)(n63,347,n4)(n63,354,n4)(n63,357,n4)(n63,361,n4)(n63,367,n4)(n63,368,n4)(n63,369,n4)(n63,371,n4)(n63,375,n4)(n63,378,n4)(n63,391,n4)(n63,405,n4)(n64,0,n4)(n64,250,n7)(n64,252,n7)(n64,254,n11)(n64,255,n13)(n64,256,n13)(n64,257,n16)(n64,258,n19)(n64,261,n21)(n64,262,n21)(n64,263,n25)(n64,265,n27)(n64,268,n27)(n64,270,n30)(n64,273,n32)(n64,275,n34)(n64,277,n37)(n64,278,n39)(n64,281,n41)(n64,293,n41)(n64,297,n37)(n64,298,n35)(n64,316,n19)(n64,332,n4)(n64,345,n4)(n64,347,n4)(n64,354,n4)(n64,357,n4)(n64,361,n4)(n64,367,n4)(n64,368,n4)(n64,369,n4)(n64,371,n4)(n64,375,n4)(n64,378,n4)(n64,391,n4)(n64,405,n4)(n64,414,n4)(n65,0,n4)(n65,250,n7)(n65,252,n7)(n65,254,n11)(n65,255,n13)(n65,256,n13)(n65,257,n16)(n65,258,n19)(n65,261,n21)(n65,262,n21)(n65,263,n25)(n65,265,n27)(n65,268,n27)(n65,270,n30)(n65,273,n32)(n65,275,n34)(n65,277,n37)(n65,278,n39)(n65,281,n41)(n65,293,n39)(n65,297,n34)(n65,298,n34)(n65,316,n13)(n65,332,n4)(n65,345,n4)(n65,347,n4)(n65,354,n4)(n65,357,n4)(n65,361,n4)(n65,367,n4)(n65,368,n4)(n65,369,n4)(n65,371,n4)(n65,375,n4)(n65,378,n4)(n65,391,n4)(n65,405,n4)(n65,414,n4)(n65,426,n4)(n66,0,n4)(n66,250,n7)(n66,252,n7)(n66,254,n11)(n66,255,n13)(n66,256,n13)(n66,257,n16)(n66,258,n19)(n66,261,n21)(n66,262,n21)(n66,263,n25)(n66,265,n27)(n66,268,n27)(n66,270,n30)(n66,273,n32)(n66,275,n34)(n66,277,n32)(n66,278,n32)(n66,281,n30)(n66,293,n16)(n66,297,n9)(n66,298,n7)(n66,316,n4)(n66,332,n4)(n66,345,n4)(n66,347,n4)(n66,354,n4)(n66,357,n4)(n66,361,n4)(n66,367,n4)(n66,368,n4)(n66,369,n4)(n66,371,n4)(n66,375,n4)(n66,378,n4)(n66,391,n4)(n66,405,n4)(n66,414,n4)(n66,426,n4)(n66,429,n4)(n67,0,n4)(n67,250,n7)(n67,252,n7)(n67,254,n11)(n67,255,n13)(n67,256,n13)(n67,257,n16)(n67,258,n19)(n67,261,n21)(n67,262,n21)(n67,263,n25)(n67,265,n27)(n67,268,n27)(n67,270,n30)(n67,273,n32)(n67,275,n30)(n67,277,n27)(n67,278,n27)(n67,281,n25)(n67,293,n7)(n67,297,n4)(n67,298,n4)(n67,316,n4)(n67,332,n4)(n67,345,n4)(n67,347,n4)(n67,354,n4)(n67,357,n4)(n67,361,n4)(n67,367,n4)(n67,368,n4)(n67,369,n4)(n67,371,n4)(n67,375,n4)(n67,378,n4)(n67,391,n4)(n67,405,n4)(n67,414,n4)(n67,426,n4)(n67,429,n4)(n67,451,n4)(n68,0,n4)(n68,250,n7)(n68,252,n7)(n68,254,n11)(n68,255,n13)(n68,256,n13)(n68,257,n16)(n68,258,n19)(n68,261,n21)(n68,262,n21)(n68,263,n25)(n68,265,n27)(n68,268,n27)(n68,270,n30)(n68,273,n30)(n68,275,n27)(n68,277,n25)(n68,278,n25)(n68,281,n19)(n68,293,n4)(n68,297,n4)(n68,298,n4)(n68,316,n4)(n68,332,n4)(n68,345,n4)(n68,347,n4)(n68,354,n4)(n68,357,n4)(n68,361,n4)(n68,367,n4)(n68,368,n4)(n68,369,n4)(n68,371,n4)(n68,375,n4)(n68,378,n4)(n68,391,n4)(n68,405,n4)(n68,414,n4)(n68,426,n4)(n68,429,n4)(n68,451,n4)(n68,456,n4)(n69,0,n4)(n69,250,n7)(n69,252,n7)(n69,254,n11)(n69,255,n13)(n69,256,n13)(n69,257,n16)(n69,258,n19)(n69,261,n21)(n69,262,n21)(n69,263,n25)(n69,265,n27)(n69,268,n27)(n69,270,n30)(n69,273,n27)(n69,275,n25)(n69,277,n23)(n69,278,n21)(n69,281,n19)(n69,293,n4)(n69,297,n4)(n69,298,n4)(n69,316,n4)(n69,332,n4)(n69,345,n4)(n69,347,n4)(n69,354,n4)(n69,357,n4)(n69,361,n4)(n69,367,n4)(n69,368,n4)(n69,369,n4)(n69,371,n4)(n69,375,n4)(n69,378,n4)(n69,391,n4)(n69,405,n4)(n69,414,n4)(n69,426,n4)(n69,429,n4)(n69,451,n4)(n69,456,n4)(n69,459,n4)(n70,0,n4)(n70,250,n7)(n70,252,n7)(n70,254,n11)(n70,255,n13)(n70,256,n13)(n70,257,n16)(n70,258,n19)(n70,261,n21)(n70,262,n21)(n70,263,n25)(n70,265,n27)(n70,268,n27)(n70,270,n30)(n70,273,n27)(n70,275,n25)(n70,277,n21)(n70,278,n19)(n70,281,n17)(n70,293,n4)(n70,297,n4)(n70,298,n4)(n70,316,n4)(n70,332,n4)(n70,345,n4)(n70,347,n4)(n70,354,n4)(n70,357,n4)(n70,361,n4)(n70,367,n4)(n70,368,n4)(n70,369,n4)(n70,371,n4)(n70,375,n4)(n70,378,n4)(n70,391,n4)(n70,405,n4)(n70,414,n4)(n70,426,n4)(n70,429,n4)(n70,451,n4)(n70,456,n4)(n70,459,n4)(n70,461,n4)(n71,0,n4)(n71,250,n7)(n71,252,n7)(n71,254,n11)(n71,255,n13)(n71,256,n13)(n71,257,n16)(n71,258,n19)(n71,261,n21)(n71,262,n21)(n71,263,n19)(n71,265,n19)(n71,268,n13)(n71,270,n9)(n71,273,n7)(n71,275,n4)(n71,277,n4)(n71,278,n4)(n71,281,n4)(n71,293,n4)(n71,297,n4)(n71,298,n4)(n71,316,n4)(n71,332,n4)(n71,345,n4)(n71,347,n4)(n71,354,n4)(n71,357,n4)(n71,361,n4)(n71,367,n4)(n71,368,n4)(n71,369,n4)(n71,371,n4)(n71,375,n4)(n71,378,n4)(n71,391,n4)(n71,405,n4)(n71,414,n4)(n71,426,n4)(n71,429,n4)(n71,451,n4)(n71,456,n4)(n71,459,n4)(n71,461,n4)(n71,462,n4)(n72,0,n4)(n72,250,n7)(n72,252,n7)(n72,254,n11)(n72,255,n13)(n72,256,n13)(n72,257,n16)(n72,258,n19)(n72,261,n21)(n72,262,n19)(n72,263,n19)(n72,265,n17)(n72,268,n11)(n72,270,n9)(n72,273,n4)(n72,275,n4)(n72,277,n4)(n72,278,n4)(n72,281,n4)(n72,293,n4)(n72,297,n4)(n72,298,n4)(n72,316,n4)(n72,332,n4)(n72,345,n4)(n72,347,n4)(n72,354,n4)(n72,357,n4)(n72,361,n4)(n72,367,n4)(n72,368,n4)(n72,369,n4)(n72,371,n4)(n72,375,n4)(n72,378,n4)(n72,391,n4)(n72,405,n4)(n72,414,n4)(n72,426,n4)(n72,429,n4)(n72,451,n4)(n72,456,n4)(n72,459,n4)(n72,461,n4)(n72,462,n4)(n72,477,n4)(n73,0,n4)(n73,250,n7)(n73,252,n7)(n73,254,n11)(n73,255,n13)(n73,256,n13)(n73,257,n16)(n73,258,n17)(n73,261,n11)(n73,262,n9)(n73,263,n9)(n73,265,n7)(n73,268,n4)(n73,270,n4)(n73,273,n4)(n73,275,n4)(n73,277,n4)(n73,278,n4)(n73,281,n4)(n73,293,n4)(n73,297,n4)(n73,298,n4)(n73,316,n4)(n73,332,n4)(n73,345,n4)(n73,347,n4)(n73,354,n4)(n73,357,n4)(n73,361,n4)(n73,367,n4)(n73,368,n4)(n73,369,n4)(n73,371,n4)(n73,375,n4)(n73,378,n4)(n73,391,n4)(n73,405,n4)(n73,414,n4)(n73,426,n4)(n73,429,n4)(n73,451,n4)(n73,456,n4)(n73,459,n4)(n73,461,n4)(n73,462,n4)(n73,477,n4)(n73,478,n4)(n74,0,n4)(n74,250,n7)(n74,252,n7)(n74,254,n9)(n74,255,n9)(n74,256,n7)(n74,257,n7)(n74,258,n4)(n74,261,n4)(n74,262,n4)(n74,263,n4)(n74,265,n4)(n74,268,n4)(n74,270,n4)(n74,273,n4)(n74,275,n4)(n74,277,n4)(n74,278,n4)(n74,281,n4)(n74,293,n4)(n74,297,n4)(n74,298,n4)(n74,316,n4)(n74,332,n4)(n74,345,n4)(n74,347,n4)(n74,354,n4)(n74,357,n4)(n74,361,n4)(n74,367,n4)(n74,368,n4)(n74,369,n4)(n74,371,n4)(n74,375,n4)(n74,378,n4)(n74,391,n4)(n74,405,n4)(n74,414,n4)(n74,426,n4)(n74,429,n4)(n74,451,n4)(n74,456,n4)(n74,459,n4)(n74,461,n4)(n74,462,n4)(n74,477,n4)(n74,478,n4)(n74,485,n4)(n75,0,n4)(n75,250,n7)(n75,252,n7)(n75,254,n7)(n75,255,n7)(n75,256,n4)(n75,257,n4)(n75,258,n4)(n75,261,n4)(n75,262,n4)(n75,263,n4)(n75,265,n4)(n75,268,n4)(n75,270,n4)(n75,273,n4)(n75,275,n4)(n75,277,n4)(n75,278,n4)(n75,281,n4)(n75,293,n4)(n75,297,n4)(n75,298,n4)(n75,316,n4)(n75,332,n4)(n75,345,n4)(n75,347,n4)(n75,354,n4)(n75,357,n4)(n75,361,n4)(n75,367,n4)(n75,368,n4)(n75,369,n4)(n75,371,n4)(n75,375,n4)(n75,378,n4)(n75,391,n4)(n75,405,n4)(n75,414,n4)(n75,426,n4)(n75,429,n4)(n75,451,n4)(n75,456,n4)(n75,459,n4)(n75,461,n4)(n75,462,n4)(n75,477,n4)(n75,478,n4)(n75,485,n4)(n75,493,n4) </transitions>
      </mdd>
      <args> b[0][] </args>
      <args> b[1][] </args>
      <args> b[2][] </args>
      <args> b[3][] </args>
      <args> b[4][] </args>
      <args> b[5][] </args>
      <args> b[6][] </args>
      <args> b[7][] </args>
      <args> b[8][] </args>
      <args> b[9][] </args>
      <args> b[10][] </args>
      <args> b[11][] </args>
      <args> b[12][] </args>
      <args> b[13][] </args>
      <args> b[14][] </args>
      <args> b[15][] </args>
      <args> b[16][] </args>
      <args> b[17][] </args>
      <args> b[18][] </args>
      <args> b[19][] </args>
      <args> b[20][] </args>
      <args> b[21][] </args>
      <args> b[22][] </args>
      <args> b[23][] </args>
    </group>
    <cardinality>
      <list> b[][] </list>
      <values> 0 250 252 254 255 256 257 258 261 262 263 265 268 270 273 275 277 278 281 293 297 298 316 332 345 347 354 357 361 367 368 369 371 375 378 391 405 414 426 429 451 456 459 461 462 477 478 485 493 495 </values>
      <occurs> 12 2 1 2 2 1 1 2 2 1 2 2 1 1 1 1 2 2 2 2 1 1 1 1 1 1 1 1 1 1 1 1 1 1 1 1 1 1 1 1 1 1 1 1 1 1 1 1 1 1 </occurs>
    </cardinality>
    <lex class="symmetryBreaking">
      <list> b[0][] </list>
      <list> b[1][] </list>
      <list> b[2][] </list>
      <list> b[3][] </list>
      <list> b[4][] </list>
      <list> b[5][] </list>
      <list> b[6][] </list>
      <list> b[7][] </list>
      <list> b[8][] </list>
      <list> b[9][] </list>
      <list> b[10][] </list>
      <list> b[11][] </list>
      <list> b[12][] </list>
      <list> b[13][] </list>
      <list> b[14][] </list>
      <list> b[15][] </list>
      <list> b[16][] </list>
      <list> b[17][] </list>
      <list> b[18][] </list>
      <list> b[19][] </list>
      <list> b[20][] </list>
      <list> b[21][] </list>
      <list> b[22][] </list>
      <list> b[23][] </list>
      <operator> ge </operator>
    </lex>
    <count>
      <list> b[][0] </list>
      <values> 0 </values>
      <condition> (eq,x) </condition>
    </count>
  </constraints>
  <objectives>
    <maximize> x </maximize>
  </objectives>
</instance>
